 $CONTRL ispher=1 scftyp=rhf mplevl=2 runtyp=energy units=bohr $end
 $basis gbasis=accd  $end
 $scf dirscf=.f. conv=1.0d-10 $end
 $mp2 method=1 nacore= 0 $end
 $system mwords=200 $end
 $DATA
title
 C1
C 6.0 -1.436849485687333 -0.3488925770101448 -0.7104312013015602
C 6.0 -0.678674353638417 2.308621724762404 -0.4190089754447337
O 8.0 0.19923949536853203 0.4189730706482088 1.3459820045875268
H 1.0 -2.0072822161601933 3.65988173443908 0.38572900851848463
H 1.0 0.7890872721306594 3.0991281812188602 -1.6259411517222693
H 1.0 -0.43899471902613224 -1.4512321912847257 -2.1388676262452866
C 6.0 -4.017714605783907 -1.30195705486969 0.023152924580114902
H 1.0 -4.867785229948919 -0.0933751476781454 1.4719908328544744
H 1.0 -5.26685192551331 -1.3329542326274133 -1.6315630869676039
H 1.0 -3.8974505449609316 -3.230749496100478 0.7698460806456178
$END
 $EFRAG
 iscrelec=0 iscrpol=1 iscrdisp=1 coord=cart qmdisp=1
 FRAGNAME=FRAGNAME
A01H1 3.561075513855 -0.44589221941  0.5861987156
A02O1 5.116658382198 -0.79344120114 -0.355427250
A03H3 6.400457058656 -1.15569036246  0.895883255
 $END
          RUNTYP=MAKEFP EFFECTIVE FRAGMENT POTENTIAL DATA FOLLOWS...
          FRAGNAMEEFP GENERATED AT Sat Jul 29 09:14:39 2017
 $FRAGNAME
EFP DATA FOR FRAGNAME SCFTYP=RHF     ... GENERATED WITH BASIS SET=XXX
 COORDINATES (BOHR)
A01H1      3.5610752403  -0.4458921852   0.5861986706   1.0078250  1.0
A02O1      5.1166579891  -0.7934411402  -0.3554272227  15.9949100  8.0
A03H3      6.4004565670  -1.1556902737   0.8958831860   1.0078250  1.0
BO21       4.3388666147  -0.6196666627   0.1153857239   0.0000000  0.0
BO32       5.7585572781  -0.9745657069   0.2702279817   0.0000000  0.0
 STOP
 MONOPOLES 
A01H1     -0.5737670835   1.00000
A02O1     -7.7061860201   8.00000
A03H3     -0.5812110853   1.00000
BO21      -0.5577365255   0.00000
BO32      -0.5810992856   0.00000
 STOP
 DIPOLES 
A01H1      -0.0687896405    0.0161397296    0.0209119279
A02O1      -0.0792748697   -0.0099330441    0.7914668668
A03H3       0.0626625258   -0.0167644604    0.0364145744
BO21        0.2140023414   -0.0466288226   -0.1613738076
BO32       -0.1579977218    0.0467360218   -0.2119251850
 STOP
 QUADRUPOLES 
A01H1      -0.3186905219   -0.3232397463   -0.3198202992   -0.0010785471 >
           -0.0027062412    0.0005292649
A02O1      -3.2810833196   -4.3598302523   -3.6465644314   -0.2845440393 >
            0.0449854288   -0.0402419773
A03H3      -0.3220354693   -0.3254222923   -0.3205770951   -0.0010045478 >
            0.0027677122   -0.0008712060
BO21       -0.1338267481   -0.2814100092   -0.2348365641   -0.0365431187 >
           -0.0502295965    0.0103012109
BO32       -0.1837817504   -0.2949017876   -0.2219283559   -0.0322490909 >
            0.0746443848   -0.0213949693
 STOP
 OCTUPOLES  
A01H1        -0.090743697      0.023458885     -0.012467558      0.007160679 >
             -0.005756173     -0.031099259     -0.004016532     -0.030340021 >
              0.007633435      0.000417493
A02O1        -0.210481499     -0.021623685      1.807635438     -0.000681870 >
              0.683974390     -0.055311405      0.563453540     -0.040789786 >
             -0.015892987     -0.032191914
A03H3         0.092376451     -0.023489473      0.008846523     -0.007350084 >
              0.001638340      0.031228548      0.003319884      0.029867698 >
             -0.007416964      0.000503703
BO21          0.645257939     -0.129162120     -0.480767791     -0.054283425 >
             -0.179836428      0.201336276     -0.162533886      0.213007704 >
             -0.046533582      0.003925748
BO32         -0.455990017      0.129778448     -0.630313235      0.049936535 >
             -0.231114247     -0.145878409     -0.208370898     -0.163366624 >
              0.048255775      0.006772527
 STOP
 POLARIZABLE POINTS
CT1   5.7778328838  -0.9820933053   0.3452081213
    2.5366629509    1.0666977762    2.2414713207   -0.4444703309 >
    1.4186227010   -0.3972555992   -0.4370825495    1.2225664247 >
   -0.3489878006
CT2   4.3066971713  -0.6142491412   0.1824809940
    3.2115938265    1.0853809526    1.7377882404   -0.5039796220 >
   -1.2747866748    0.2850131989   -0.5114075034   -1.0742994061 >
    0.2355613039
CT3   5.0275057513  -1.2752960401  -0.6382641901
    1.7058311645    2.6649919676    2.2025572534    0.1101238259 >
    0.2439380725    1.2219334527    0.0937042457    0.2139718770 >
    1.1098153535
CT4   5.2657283323  -0.3066293208  -0.6022487931
    1.8396154819    2.6995488038    2.0341995726    0.3698191019 >
   -0.3306931175   -1.1543327980    0.3867453762   -0.3044977504 >
   -1.0414090214
 STOP
 DYNAMIC POLARIZABLE POINTS
CT  1   5.7778328838  -0.9820933053   0.3452081213 -- FOR W= 0.002792I A.U.
    2.5364256699    1.0665867727    2.2413142161   -0.4442844767 >
    1.4187052700   -0.3971216741   -0.4369838182    1.2223721448 >
   -0.3488383725
CT  2   4.3066971713  -0.6142491412   0.1824809940
    3.2114891089    1.0853031337    1.7378020417   -0.5038114577 >
   -1.2746679158    0.2849354711   -0.5112656171   -1.0742131718 >
    0.2356375562
CT  3   5.0275057513  -1.2752960401  -0.6382641901
    1.7059289893    2.6651108758    2.2025437473    0.1103040656 >
    0.2443945591    1.2220261406    0.0936312628    0.2139963883 >
    1.1098536078
CT  4   5.2657283323  -0.3066293208  -0.6022487931
    1.8397834851    2.6996405386    2.0341662620    0.3699307783 >
   -0.3306930615   -1.1543770114    0.3867573245   -0.3044230227 >
   -1.0411882632
CT  1   5.7778328838  -0.9820933053   0.3452081213 -- FOR W= 0.015107I A.U.
    2.5352077068    1.0662491137    2.2400551290   -0.4440098484 >
    1.4176665981   -0.3968290272   -0.4367053599    1.2212303888 >
   -0.3485203721
CT  2   4.3066971713  -0.6142491412   0.1824809940
    3.2096703030    1.0849561335    1.7369570563   -0.5034682573 >
   -1.2736666861    0.2847105464   -0.5109262380   -1.0731090549 >
    0.2353873305
CT  3   5.0275057513  -1.2752960401  -0.6382641901
    1.7051457132    2.6628228429    2.2010826506    0.1100634611 >
    0.2439845264    1.2200193605    0.0935073859    0.2138081794 >
    1.1087307085
CT  4   5.2657283323  -0.3066293208  -0.6022487931
    1.8388109092    2.6973172233    2.0329297438    0.3694177089 >
   -0.3301529521   -1.1524804159    0.3861275178   -0.3041045251 >
   -1.0401756050
CT  1   5.7778328838  -0.9820933053   0.3452081213 -- FOR W= 0.039002I A.U.
    2.5280920230    1.0642782803    2.2327164371   -0.4424052313 >
    1.4116048021   -0.3951214604   -0.4350791759    1.2145880939 >
   -0.3466700315
CT  2   4.3066971713  -0.6142491412   0.1824809940
    3.1990554040    1.0829308547    1.7320309361   -0.5014651008 >
   -1.2678270026    0.2833985541   -0.5089445835   -1.0666904178 >
    0.2339329687
CT  3   5.0275057513  -1.2752960401  -0.6382641901
    1.7005710627    2.6495515829    2.1925764910    0.1086778053 >
    0.2416146864    1.2084143885    0.0927916576    0.2127121330 >
    1.1022004516
CT  4   5.2657283323  -0.3066293208  -0.6022487931
    1.8331398652    2.6838408594    2.0257250585    0.3664477590 >
   -0.3270284113   -1.1415120934    0.3824875720   -0.3022521445 >
   -1.0342824236
CT  1   5.7778328838  -0.9820933053   0.3452081213 -- FOR W= 0.077996I A.U.
    2.5033676876    1.0574524036    2.2074400931   -0.4368283382 >
    1.3906274363   -0.3892168212   -0.4294377742    1.1918742652 >
   -0.3403383050
CT  2   4.3066971713  -0.6142491412   0.1824809940
    3.1623168490    1.0759173751    1.7150496949   -0.4945304236 >
   -1.2476648380    0.2788672415   -0.5020740027   -1.0448022334 >
    0.2289772166
CT  3   5.0275057513  -1.2752960401  -0.6382641901
    1.6846940089    2.6046585533    2.1634078446    0.1041164642 >
    0.2337058052    1.1696058681    0.0904064777    0.2089495019 >
    1.0798993010
CT  4   5.2657283323  -0.3066293208  -0.6022487931
    1.8135749639    2.6382483826    2.0009436214    0.3564791699 >
   -0.3165656344   -1.1048258049    0.3703423988   -0.2959248776 >
   -1.0141062260
CT  1   5.7778328838  -0.9820933053   0.3452081213 -- FOR W= 0.138651I A.U.
    2.4353353631    1.0387879411    2.1395362879   -0.4214859701 >
    1.3335855906   -0.3731945885   -0.4139946344    1.1321186571 >
   -0.3236485827
CT  2   4.3066971713  -0.6142491412   0.1824809940
    3.0623185756    1.0567461677    1.6693049426   -0.4756547429 >
   -1.1931865943    0.2666122028   -0.4832965998   -0.9876757931 >
    0.2160709990
CT  3   5.0275057513  -1.2752960401  -0.6382641901
    1.6411224698    2.4897190105    2.0860059846    0.0933304107 >
    0.2142220785    1.0735117524    0.0845642373    0.1989395126 >
    1.0214368685
CT  4   5.2657283323  -0.3066293208  -0.6022487931
    1.7607227392    2.5214816032    1.9346494274    0.3315453513 >
   -0.2905745406   -1.0139380210    0.3404622451   -0.2793412025 >
   -0.9608666208
CT  1   5.7778328838  -0.9820933053   0.3452081213 -- FOR W= 0.233223I A.U.
    2.2735101593    0.9944113187    1.9859522587   -0.3851806308 >
    1.2018949690   -0.3363661140   -0.3778142600    1.0037832835 >
   -0.2876450966
CT  2   4.3066971713  -0.6142491412   0.1824809940
    2.8300943583    1.0111868715    1.5649720117   -0.4319663398 >
   -1.0691283053    0.2386499706   -0.4394710969   -0.8672967282 >
    0.1890137325
CT  3   5.0275057513  -1.2752960401  -0.6382641901
    1.5378399319    2.2537939642    1.9157429947    0.0751771841 >
    0.1776989321    0.8919491825    0.0738585992    0.1768688986 >
    0.8968128890
CT  4   5.2657283323  -0.3066293208  -0.6022487931
    1.6392569436    2.2816838053    1.7864417738    0.2834021666 >
   -0.2412396300   -0.8419923179    0.2848592822   -0.2441333806 >
   -0.8459398464
CT  1   5.7778328838  -0.9820933053   0.3452081213 -- FOR W= 0.385897I A.U.
    1.9433130304    0.8999379346    1.6949058771   -0.3129351486 >
    0.9506633045   -0.2665266597   -0.3068063277    0.7858302603 >
   -0.2259896416
CT  2   4.3066971713  -0.6142491412   0.1824809940
    2.3753883898    0.9142460387    1.3625395851   -0.3479026221 >
   -0.8377169581    0.1863696275   -0.3541306134   -0.6702166627 >
    0.1451765490
CT  3   5.0275057513  -1.2752960401  -0.6382641901
    1.3269404087    1.8651747617    1.6089900649    0.0556912917 >
    0.1272062185    0.6407835286    0.0600736539    0.1376051486 >
    0.6881679364
CT  4   5.2657283323  -0.3066293208  -0.6022487931
    1.4015544896    1.8866219799    1.5129330304    0.2143534094 >
   -0.1731088948   -0.6035547540    0.2100702890   -0.1861769966 >
   -0.6502826290
CT  1   5.7778328838  -0.9820933053   0.3452081213 -- FOR W= 0.649114I A.U.
    1.4075561461    0.7240436096    1.2478468293   -0.2038513445 >
    0.5941112302   -0.1676506025   -0.2006196203    0.5071939358 >
   -0.1462752008
CT  2   4.3066971713  -0.6142491412   0.1824809940
    1.6758285138    0.7340250153    1.0352289200   -0.2251318972 >
   -0.5178254508    0.1142181733   -0.2283972975   -0.4300020304 >
    0.0926199239
CT  3   5.0275057513  -1.2752960401  -0.6382641901
    0.9810669761    1.3437850260    1.1687318557    0.0422043811 >
    0.0753260646    0.3877590697    0.0467280628    0.0855305029 >
    0.4305259692
CT  4   5.2657283323  -0.3066293208  -0.6022487931
    1.0265194701    1.3573411190    1.1097257162    0.1407842679 >
   -0.1057309586   -0.3628589949    0.1362942794   -0.1168419827 >
   -0.4054029335
CT  1   5.7778328838  -0.9820933053   0.3452081213 -- FOR W= 1.153904I A.U.
    0.7805588191    0.4647817528    0.7173862290   -0.0936617996 >
    0.2608142941   -0.0744871012   -0.0930029151    0.2430941637 >
   -0.0701292390
CT  2   4.3066971713  -0.6142491412   0.1824809940
    0.8998788585    0.4695367236    0.6182472119   -0.1032950066 >
   -0.2253070649    0.0489973783   -0.1039487256   -0.2077260047 >
    0.0446736886
CT  3   5.0275057513  -1.2752960401  -0.6382641901
    0.5657831716    0.7728598079    0.6732016980    0.0293542387 >
    0.0350236323    0.1899835229    0.0311565560    0.0388661077 >
    0.2050354119
CT  4   5.2657283323  -0.3066293208  -0.6022487931
    0.5874329618    0.7795404955    0.6448721958    0.0759955428 >
   -0.0532607205   -0.1758034278    0.0741880638   -0.0569642270 >
   -0.1908894644
CT  1   5.7778328838  -0.9820933053   0.3452081213 -- FOR W= 2.307592I A.U.
    0.2882919549    0.1996456916    0.2746727270   -0.0262004728 >
    0.0706313549   -0.0204279654   -0.0262389744    0.0716675462 >
   -0.0206828123
CT  2   4.3066971713  -0.6142491412   0.1824809940
    0.3208734281    0.2008397188    0.2458759300   -0.0288859250 >
   -0.0607608644    0.0130226129   -0.0288427949   -0.0619218069 >
    0.0133081066
CT  3   5.0275057513  -1.2752960401  -0.6382641901
    0.2208111989    0.3005957833    0.2612939695    0.0127977599 >
    0.0117999836    0.0661890493    0.0130386751    0.0122107863 >
    0.0675540155
CT  4   5.2657283323  -0.3066293208  -0.6022487931
    0.2280378933    0.3029111816    0.2517521205    0.0280180097 >
   -0.0188628900   -0.0607080140    0.0277724709   -0.0191490746 >
   -0.0621035944
CT  1   5.7778328838  -0.9820933053   0.3452081213 -- FOR W= 5.957643I A.U.
    0.0538189808    0.0412930345    0.0524515574   -0.0036936880 >
    0.0097527498   -0.0028512372   -0.0037123652    0.0102552708 >
   -0.0029748267
CT  2   4.3066971713  -0.6142491412   0.1824809940
    0.0582830271    0.0413995392    0.0482802990   -0.0040666775 >
   -0.0084430275    0.0017860160   -0.0040473763   -0.0089624084 >
    0.0019137418
CT  3   5.0275057513  -1.2752960401  -0.6382641901
    0.0436580543    0.0583436701    0.0506464560    0.0024189876 >
    0.0021604642    0.0119197549    0.0024365528    0.0021808734 >
    0.0119637682
CT  4   5.2657283323  -0.3066293208  -0.6022487931
    0.0449424175    0.0587605277    0.0489452649    0.0050993277 >
   -0.0033567746   -0.0109042952    0.0050811399   -0.0033603592 >
   -0.0109524360
CT  1   5.7778328838  -0.9820933053   0.3452081213 -- FOR W=32.239080I A.U.
    0.0019660125    0.0015543753    0.0019297577   -0.0001211524 >
    0.0003147484   -0.0000926044   -0.0001218600    0.0003337874 >
   -0.0000972869
CT  2   4.3066971713  -0.6142491412   0.1824809940
    0.0021097576    0.0015566433    0.0017930088   -0.0001333237 >
   -0.0002742516    0.0000575254   -0.0001325980   -0.0002937804 >
    0.0000623279
CT  3   5.0275057513  -1.2752960401  -0.6382641901
    0.0016362180    0.0021584077    0.0018754251    0.0000854595 >
    0.0000789911    0.0004273989    0.0000860369    0.0000797541 >
    0.0004293530
CT  4   5.2657283323  -0.3066293208  -0.6022487931
    0.0016823521    0.0021733177    0.0018143819    0.0001816737 >
   -0.0001188915   -0.0003912275    0.0001810781   -0.0001191629 >
   -0.0003933021
 STOP
 DIPOLE-QUADRUPOLE DYNAMIC POLARIZABLE POINTS
CT  1   5.7778328838  -0.9820933053   0.3452081213 -- FOR W= 0.002792I A.U.
   -0.4183820399    0.2280528779    0.0703761172    0.2354599425 >
    0.1154401126    0.0671155072   -0.1288185369    0.1161024190 >
    0.1306865050    0.2840147712    0.2316258034    0.0925241396 >
    0.2295688839   -0.2258410714    0.3087198151    0.1478400049 >
    0.2951162667   -0.0237246302   -0.6214353101    0.2980876156 >
   -0.4297231617    0.3044163443    0.3944223981    0.1194500919 >
   -0.5999216646    0.1613062261    0.4398111145
CT  2   4.3066971713  -0.6142491412   0.1824809940
    0.5612402035   -0.3204001413    0.1590725660   -0.3115138239 >
   -0.1988964935    0.0252119817   -0.0798952880    0.0839815655 >
   -0.2395141552   -0.3179688530   -0.3278868824    0.0055253893 >
   -0.3298996685    0.2218168617    0.2690239794    0.0596524307 >
    0.2557124640    0.0565631473   -0.7165397125    0.2583262583 >
    0.1674399763    0.2536839648    0.3651640125   -0.0378569503 >
    0.2922823172   -0.0685594768    0.6036550694
CT  3   5.0275057513  -1.2752960401  -0.6382641901
   -0.1404210292    0.6230419645    1.0059484206    0.6248912423 >
   -0.1239574507    0.2141386475    1.0093200591    0.2259299662 >
    0.2949005955   -1.0896260175    0.0091715241    0.1004000421 >
    0.0212017595    0.5993888963    2.1674272496    0.1229841871 >
    2.2483651693    0.5566248779   -0.4791323869   -0.0306630450 >
    0.3076470449   -0.0211710013   -0.2093507067    1.2892338959 >
    0.3261389250    1.3574709304    0.6041735354
CT  4   5.2657283323  -0.3066293208  -0.6022487931
   -0.2648226974   -0.7148233387    1.0796622829   -0.7106769742 >
    0.1798053673    0.3518266462    1.0861356944    0.3803688466 >
    0.0827636771    0.9653750721   -0.5293627289    0.4564687949 >
   -0.5170549246   -0.6822797028    2.1218668004    0.4750336058 >
    2.2046588920   -0.3499821481   -0.3260189346    0.1281100338 >
   -0.2802898650    0.1194335466   -0.1452099486   -1.1798479882 >
   -0.2948513223   -1.2425884025    0.3819633802
CT  1   5.7778328838  -0.9820933053   0.3452081213 -- FOR W= 0.015107I A.U.
   -0.4183417633    0.2279867093    0.0703306441    0.2353976598 >
    0.1153963936    0.0670866169   -0.1289685966    0.1160992519 >
    0.1305995062    0.2839026367    0.2314976042    0.0924764166 >
    0.2294396057   -0.2257303297    0.3085665325    0.1478213251 >
    0.2949558409   -0.0237051446   -0.6208569084    0.2978666460 >
   -0.4293962795    0.3041986950    0.3942349276    0.1193647973 >
   -0.5996841446    0.1612429101    0.4395319130
CT  2   4.3066971713  -0.6142491412   0.1824809940
    0.5610979976   -0.3202786383    0.1590299124   -0.3113877654 >
   -0.1988106578    0.0251891079   -0.0800605964    0.0839888535 >
   -0.2393947391   -0.3178514095   -0.3277036183    0.0055144639 >
   -0.3297174362    0.2217053011    0.2688898345    0.0596692873 >
    0.2555714872    0.0565369517   -0.7158807237    0.2581228087 >
    0.1673277070    0.2534781349    0.3649936849   -0.0378291851 >
    0.2922341256   -0.0685474689    0.6032958949
CT  3   5.0275057513  -1.2752960401  -0.6382641901
   -0.1403584915    0.6223567675    1.0050259274    0.6241930984 >
   -0.1237828570    0.2137056607    1.0083729621    0.2254079308 >
    0.2944442992   -1.0883185210    0.0093331588    0.1001998787 >
    0.0212791696    0.5988459868    2.1644880451    0.1226149793 >
    2.2447882021    0.5553355537   -0.4782898156   -0.0306291734 >
    0.3073722037   -0.0211991499   -0.2090014154    1.2878530872 >
    0.3257291436    1.3555524375    0.6036440393
CT  4   5.2657283323  -0.3066293208  -0.6022487931
   -0.2645927327   -0.7139429325    1.0786198276   -0.7098253342 >
    0.1795436632    0.3512559807    1.0850386299    0.3795713754 >
    0.0828328680    0.9643332936   -0.5286620055    0.4556858644 >
   -0.5164395889   -0.6816280161    2.1189727907    0.4740975646 >
    2.2011183250   -0.3490733247   -0.3253681269    0.1278773887 >
   -0.2799639612    0.1192566212   -0.1449412921   -1.1786575769 >
   -0.2944025792   -1.2409080257    0.3817450824
CT  1   5.7778328838  -0.9820933053   0.3452081213 -- FOR W= 0.039002I A.U.
   -0.4180888560    0.2275986298    0.0700495125    0.2350314615 >
    0.1151489786    0.0669224040   -0.1298386877    0.1160798952 >
    0.1300847108    0.2832444185    0.2307502566    0.0922020406 >
    0.2286861817   -0.2250858607    0.3076707687    0.1477104999 >
    0.2940198513   -0.0235895081   -0.6174917170    0.2965780772 >
   -0.4274956123    0.3029288238    0.3931333272    0.1188686526 >
   -0.5982867040    0.1608705342    0.4378975074
CT  2   4.3066971713  -0.6142491412   0.1824809940
    0.5602568217   -0.3195675279    0.1587589791   -0.3106510219 >
   -0.1983160382    0.0250606342   -0.0810217169    0.0840301012 >
   -0.2386934191   -0.3171630472   -0.3266350538    0.0054560343 >
   -0.3286546777    0.2210563849    0.2681057058    0.0597671893 >
    0.2547489156    0.0563832053   -0.7120464362    0.2569359387 >
    0.1666738996    0.2522778723    0.3639900313   -0.0376676246 >
    0.2919408880   -0.0684745756    0.6011938910
CT  3   5.0275057513  -1.2752960401  -0.6382641901
   -0.1399962385    0.6183629315    0.9996490887    0.6201249568 >
   -0.1227643141    0.2112069549    1.0028548395    0.2223976528 >
    0.2918052412   -1.0807400392    0.0102662788    0.0990455601 >
    0.0217289044    0.5956931900    2.1474652675    0.1204902627 >
    2.2241037715    0.5478971126   -0.4734250043   -0.0304271393 >
    0.3057719093   -0.0213533533   -0.2069608761    1.2798292524 >
    0.3233539723    1.3444415411    0.6005416256
CT  4   5.2657283323  -0.3066293208  -0.6022487931
   -0.2632414801   -0.7088250996    1.0725514661   -0.7048726004 >
    0.1780154440    0.3479586027    1.0786567851    0.3749720959 >
    0.0832249221    0.9582867525   -0.5246110493    0.4511628514 >
   -0.5128787024   -0.6778446006    2.1022105364    0.4686953233 >
    2.1806438506   -0.3438319540   -0.3216136322    0.1265401171 >
   -0.2780702350    0.1182394325   -0.1433705244   -1.1717317705 >
   -0.2918036960   -1.2311690734    0.3804455233
CT  1   5.7778328838  -0.9820933053   0.3452081213 -- FOR W= 0.077996I A.U.
   -0.4169830270    0.2262302109    0.0688743698    0.2337284914 >
    0.1143918358    0.0664101908   -0.1327756020    0.1160009990 >
    0.1282125338    0.2809168661    0.2281735672    0.0913053241 >
    0.2260913174   -0.2228782318    0.3045542724    0.1473030170 >
    0.2907830256   -0.0231647971   -0.6059806611    0.2921322279 >
   -0.4210093151    0.2985389010    0.3892246427    0.1171729099 >
   -0.5933057226    0.1595450276    0.4321772370
CT  2   4.3066971713  -0.6142491412   0.1824809940
    0.5572000902   -0.3170799424    0.1575383287   -0.3080870252 >
   -0.1966853360    0.0246803519   -0.0843000051    0.0841558010 >
   -0.2362097396   -0.3147417050   -0.3229482630    0.0053221900 >
   -0.3249851944    0.2188376060    0.2653750287    0.0600994125 >
    0.2519036306    0.0558398917   -0.6989279844    0.2528351714 >
    0.1644299665    0.2481371816    0.3603933824   -0.0371148482 >
    0.2907719125   -0.0681861383    0.5938443338
CT  3   5.0275057513  -1.2752960401  -0.6382641901
   -0.1387758452    0.6046092013    0.9811308630    0.6061298559 >
   -0.1192459963    0.2029169139    0.9838767290    0.2124396984 >
    0.2829740685   -1.0551749683    0.0133658427    0.0952266156 >
    0.0232582626    0.5849791823    2.0902112413    0.1135165825 >
    2.1549388778    0.5232456218   -0.4572543720   -0.0296745768 >
    0.3002814451   -0.0217615827   -0.1998791651    1.2525078023 >
    0.3153412523    1.3070782926    0.5896600347
CT  4   5.2657283323  -0.3066293208  -0.6022487931
   -0.2584514744   -0.6913739526    1.0517487014   -0.6879578030 >
    0.1727186773    0.3369670140    1.0568349562    0.3597491031 >
    0.0844319265    0.9377856003   -0.5110779764    0.4360955041 >
   -0.5009376954   -0.6650019574    2.0458176530    0.4507660704 >
    2.1121746347   -0.3264855680   -0.3091731506    0.1221701978 >
   -0.2716243458    0.1149129718   -0.1379035513   -1.1480442459 >
   -0.2830654975   -1.1983300213    0.3756334654
CT  1   5.7778328838  -0.9820933053   0.3452081213 -- FOR W= 0.138651I A.U.
   -0.4122693876    0.2223053289    0.0642090085    0.2299058498 >
    0.1130460999    0.0654164053   -0.1401942784    0.1156844433 >
    0.1224637149    0.2742034225    0.2212110510    0.0892420488 >
    0.2191004094   -0.2170195138    0.2959296000    0.1460043174 >
    0.2819702917   -0.0218336743   -0.5756713837    0.2801422861 >
   -0.4040469406    0.2866363284    0.3778922453    0.1127183962 >
   -0.5786958718    0.1556691514    0.4161417336
CT  2   4.3066971713  -0.6142491412   0.1824809940
    0.5477992745   -0.3101000170    0.1521520809   -0.3009899400 >
   -0.1928327597    0.0241100811   -0.0928432441    0.0843618081 >
   -0.2290387520   -0.3078438783   -0.3129692667    0.0054522120 >
   -0.3150327352    0.2129790041    0.2578000934    0.0609445165 >
    0.2441528628    0.0542779557   -0.6643706369    0.2417380895 >
    0.1584759858    0.2369788817    0.3497152758   -0.0356611208 >
    0.2864672171   -0.0671379623    0.5732979167
CT  3   5.0275057513  -1.2752960401  -0.6382641901
   -0.1356615769    0.5677533951    0.9314192256    0.5687257025 >
   -0.1097533111    0.1828548661    0.9331143041    0.1885493208 >
    0.2610368301   -0.9902763279    0.0208781178    0.0860755489 >
    0.0272033368    0.5571777178    1.9460852518    0.0971841354 >
    1.9836598047    0.4638046072   -0.4179175604   -0.0272893794 >
    0.2856955421   -0.0220381965   -0.1805960051    1.1814582622 >
    0.2949922652    1.2131365667    0.5592439341
CT  4   5.2657283323  -0.3066293208  -0.6022487931
   -0.2446730444   -0.6457864867    0.9965778549   -0.6435892033 >
    0.1583206959    0.3100165532    0.9993459521    0.3231758220 >
    0.0866479962    0.8850122556   -0.4776247089    0.3991997967 >
   -0.4711024326   -0.6317936366    1.9037630002    0.4073349214 >
    1.9425821611   -0.2848333285   -0.2791884089    0.1120630976 >
   -0.2549026725    0.1072019904   -0.1229230977   -1.0857284664 >
   -0.2611293010   -1.1151458925    0.3605242486
CT  1   5.7778328838  -0.9820933053   0.3452081213 -- FOR W= 0.233223I A.U.
   -0.3931239842    0.2120583572    0.0466831268    0.2195320919 >
    0.1131161153    0.0648503640   -0.1543160099    0.1142814100 >
    0.1061921229    0.2566477347    0.2050314653    0.0860970223 >
    0.2029560317   -0.2039069727    0.2749606999    0.1419139482 >
    0.2612338275   -0.0179789126   -0.5104548791    0.2529509304 >
   -0.3681682212    0.2593366630    0.3484606483    0.1031890613 >
   -0.5399085337    0.1454246454    0.3767202399
CT  2   4.3066971713  -0.6142491412   0.1824809940
    0.5206868100   -0.2927169571    0.1300837504   -0.2837703208 >
   -0.1865112737    0.0248839037   -0.1105254659    0.0840567746 >
   -0.2105021583   -0.2901146471   -0.2897297931    0.0079894675 >
   -0.2917562417    0.2000036957    0.2393118017    0.0624883217 >
    0.2259089316    0.0502510823   -0.5900044289    0.2164539057 >
    0.1455794596    0.2117800624    0.3209227886   -0.0325781553 >
    0.2712792862   -0.0634913881    0.5230937267
CT  3   5.0275057513  -1.2752960401  -0.6382641901
   -0.1290025430    0.4858190345    0.8196431686    0.4859652865 >
   -0.0885037235    0.1470088721    0.8197352325    0.1468056572 >
    0.2189626172   -0.8601469671    0.0341499808    0.0702752580 >
    0.0351014037    0.4982573566    1.6626987320    0.0705379203 >
    1.6591893319    0.3587846582   -0.3468231448   -0.0206793923 >
    0.2536031430   -0.0195410208   -0.1371652956    1.0325596514 >
    0.2541080708    1.0296009511    0.4874057766
CT  4   5.2657283323  -0.3066293208  -0.6022487931
   -0.2101335816   -0.5491308501    0.8753443687   -0.5487717905 >
    0.1257981023    0.2604173004    0.8746312963    0.2591083397 >
    0.0870052920    0.7759970903   -0.4141755620    0.3313150563 >
   -0.4131097524   -0.5620823814    1.6241356359    0.3295346363 >
    1.6212482098   -0.2120856573   -0.2262493905    0.0960399389 >
   -0.2202920959    0.0948960426   -0.0889197012   -0.9522083059 >
   -0.2186880928   -0.9500201946    0.3187695900
CT  1   5.7778328838  -0.9820933053   0.3452081213 -- FOR W= 0.385897I A.U.
   -0.3328449597    0.1876131843   -0.0032277300    0.1938313319 >
    0.1200692533    0.0671816081   -0.1704631937    0.1083093994 >
    0.0681574325    0.2159107158    0.1717226403    0.0832639102 >
    0.1699958796   -0.1780290254    0.2296283384    0.1297047408 >
    0.2182072618   -0.0089588512   -0.3994235969    0.2025895683 >
   -0.3092224035    0.2079025110    0.2840303769    0.0871575766 >
   -0.4521139167    0.1222985635    0.2940497604
CT  2   4.3066971713  -0.6142491412   0.1824809940
    0.4523055572   -0.2542555413    0.0633797150   -0.2468309741 >
   -0.1797952911    0.0311903734   -0.1363021950    0.0802978831 >
   -0.1698735060   -0.2491223944   -0.2419722008    0.0180591123 >
   -0.2436538947    0.1747230538    0.1992710849    0.0632877977 >
    0.1881480526    0.0413199037   -0.4638879163    0.1697716858 >
    0.1244474982    0.1658929783    0.2557745735   -0.0277310687 >
    0.2287659522   -0.0533859385    0.4189182850
CT  3   5.0275057513  -1.2752960401  -0.6382641901
   -0.1152050792    0.3419004530    0.6147822358    0.3414143796 >
   -0.0517981194    0.1027597666    0.6136288298    0.0979223225 >
    0.1575152124   -0.6574853323    0.0485349156    0.0528239426 >
    0.0453728289    0.3960308628    1.2375315132    0.0449023735 >
    1.2033413661    0.2331155588   -0.2570147376   -0.0070523934 >
    0.1964930794   -0.0093000444   -0.0629243558    0.7893291339 >
    0.1901671800    0.7605041498    0.3552826465
CT  4   5.2657283323  -0.3066293208  -0.6022487931
   -0.1409312125   -0.3888963969    0.6592762767   -0.3899518350 >
    0.0694715208    0.1954466509    0.6560560607    0.1835138374 >
    0.0755704326    0.5981298875   -0.3226102965    0.2417822867 >
   -0.3257431918   -0.4435113647    1.2044696877    0.2326418250 >
    1.1702905085   -0.1276618685   -0.1629819074    0.0811133145 >
   -0.1660428581    0.0830692218   -0.0307220780   -0.7276761415 >
   -0.1587992219   -0.7017749253    0.2311033805
CT  1   5.7778328838  -0.9820933053   0.3452081213 -- FOR W= 0.649114I A.U.
   -0.2169035701    0.1403863045   -0.0807902373    0.1436651307 >
    0.1275535039    0.0680187266   -0.1689743396    0.0897056475 >
    0.0130921315    0.1439862654    0.1137664993    0.0768530257 >
    0.1128559792   -0.1320709791    0.1500676549    0.1013415086 >
    0.1440452558    0.0033359311   -0.2580046012    0.1335224719 >
   -0.2366686045    0.1363239851    0.1864852770    0.0667368991 >
   -0.3120160191    0.0852669427    0.1657258256
CT  2   4.3066971713  -0.6142491412   0.1824809940
    0.3284725132   -0.1860285811   -0.0473494291   -0.1821358036 >
   -0.1670364962    0.0410788332   -0.1520462494    0.0668267549 >
   -0.1076217031   -0.1742658130   -0.1597934592    0.0336079673 >
   -0.1606751888    0.1298933641    0.1294769573    0.0573221832 >
    0.1236449575    0.0270283759   -0.3056753725    0.1079110881 >
    0.1020833332    0.1058774397    0.1573495557   -0.0229162680 >
    0.1567793767   -0.0363675636    0.2588546370
CT  3   5.0275057513  -1.2752960401  -0.6382641901